9 3 8 10 7 4 9 8 6 -1 
7 8 5 9 4 1 -1 6 4 -1 
3 8 10 0 6 5 2 2 -1 -1 
9 8 -1 10 3 -1 -1 10 -1 -1 
2 7 10 0 4 1 -1 10 0 -1 
3 8 0 6 9 8 3 3 7 -1 
9 2 1 5 9 5 10 4 5 -1 
5 7 7 10 5 3 9 1 3 -1 
5 8 5 5 5 4 0 5 3 -1 
1 7 5 7 3 -1 8 0 2 -1 
1 0 3 9 6 -1 4 3 0 -1 
10 6 5 7 -1 2 -1 8 0 -1 
1 3 -1 -1 10 5 3 4 4 -1 
7 5 10 2 3 -1 4 3 1 -1 
7 6 1 10 6 2 9 4 4 -1 
1 4 -1 0 0 7 -1 5 -1 -1 
5 9 0 10 8 2 7 8 4 -1 
2 5 7 0 3 3 6 9 5 -1 
9 9 5 6 1 -1 6 5 2 -1 
1 -1 6 1 0 0 9 10 -1 -1 
